WARNING: for repeatability, setting FPU to use double precision
============================[ Problem Statistics ]=============================
|                                                                             |
|  Number of variables:            50                                         |
|  Number of clauses:             218                                         |
|  Parse time:                   0.00 s                                       |
|                                                                             |
============================[ Search Statistics ]==============================
| Conflicts |          ORIGINAL         |          LEARNT          | Progress |
|           |    Vars  Clauses Literals |    Limit  Clauses Lit/Cl |          |
===============================================================================
===============================================================================
restarts              : 1
conflicts             : 51             (34789 /sec)
decisions             : 57             (0.00 % random) (38881 /sec)
propagations          : 788            (537517 /sec)
conflict literals     : 193            (13.45 % deleted)
Memory used           : 20.00 MB
CPU time              : 0.001466 s

UNSATISFIABLE
